(set-info :smt-lib-version 2.6)
(set-logic QF_SLIA)
(set-info :source |
Generated by: Joel Day, Thorsten Ehlers, Mitja Kulczynski, Federico Mora, Florin Manea, Dirk Nowotka, Danny Poulsen, Zhengyang Lu
Application: Test WOORPJE
Target solver: WOORPJE
Publications: Day, J. D., Ehlers, T., Kulczynski, M., Manea, F., Nowotka, D., & Poulsen, D. B. (2019). On solving word equations using SAT. In RP 2019
Description: Enriches a system of 30 word equations by suitable linear constraints
|)
(set-info :license "https://creativecommons.org/licenses/by/4.0/")
(set-info :category "random")
(set-info :status unknown)

(declare-fun C () String)
(declare-fun D () String)
(declare-fun F () String)
(assert (= (str.++  "ec" D "edcabbfddbbdeccde")  (str.++  "eceddfdf" F "bcbabdbedcabbfddbbdeccde") ))
(assert (= (str.++  "facafbdbdfb" C "cbefcaeeaffaeebdfdfddadac")  (str.++  "facafbdbdfbdbcbcbefcaeeaffaeebdfdfddadac" "") ))
(assert (= (str.++  "cdacddeeeaecadbcbfbfbcdfcebeabfedeadcffc" "")  (str.++  "cdacddeeeaeca" C "fbfbcdfcebeabfedeadcffc") ))
(assert (>=(* (str.len D) 3) 60))
(assert (<=(* (str.len D) 2) 42))
(assert (>=(* (str.len F) 11) 11))
(check-sat)

(exit)
